(define-fun INV ((|word| (_ BitVec 9))) (_ BitVec 9)
   (bvadd (concat #x00 ((_ extract 2 2) |word|))
          (concat #x00 ((_ extract 1 1) |word|))
          (concat #x00 ((_ extract 0 0) |word|))))

          
          
